(declare-const v0 Bool)
(declare-const v1 Bool)
(declare-const v2 Bool)
(declare-const v3 Bool)
(declare-const v4 Bool)
(assert (edge v0 (or (not v1) (not v2) (not v3))))
(assert (edge true (or v0 v4)))
(assert (edge (or v0 v1 (not v4)) (or (not v0) (not v3))))
(assert (edge (not v2) (or (not v2) (not v3))))
(assert (edge v1 (not v2)))
(assert (not (edge (or v0 (not v3) (not v2)) (not v4))))